<number of tasks>
50

<cycle time>
1000

<order strength>
0.896


<task times>
1 53
2 136
3 220
4 97
5 126
6 185
7 249
8 117
9 282
10 223
11 116
12 180
13 112
14 52
15 240
16 80
17 142
18 152
19 56
20 195
21 107
22 257
23 315
24 470
25 342
26 263
27 144
28 286
29 527
30 431
31 153
32 117
33 201
34 206
35 149
36 121
37 309
38 150
39 61
40 270
41 552
42 129
43 132
44 137
45 40
46 223
47 321
48 104
49 117
50 167

<precedence relations>
1,4
1,5
2,3
2,8
3,6
3,7
3,9
4,6
4,7
4,8
4,9
5,6
5,7
5,8
6,10
6,11
7,10
7,11
8,10
8,11
9,10
9,11
10,12
10,13
10,14
10,15
11,12
11,13
11,14
11,15
12,16
12,17
12,19
13,16
13,17
13,18
13,19
14,16
14,17
14,18
14,19
15,16
15,17
15,18
15,19
16,20
16,21
16,22
17,20
17,21
17,22
18,20
18,21
18,22
19,20
19,21
19,22
20,23
20,24
20,25
21,25
22,23
22,24
22,25
22,26
23,27
23,28
23,29
24,28
24,29
25,27
25,28
26,29
26,30
27,34
27,36
27,37
28,31
29,31
30,31
31,32
31,33
32,34
32,36
32,37
33,35
33,38
33,43
34,39
35,44
35,45
35,49
36,39
37,42
37,43
38,45
38,47
39,40
40,41
40,42
40,43
41,46
42,45
42,49
42,50
43,44
43,47
44,50
46,47
47,48
47,49
47,50

<end>
